5 5
5 2 5 8 3 13 5 2 18 4 5 1 12 3 5 5 13 2 4 12 5 3 3 2 16 4 7 5 2 2 3 10 5 5
6 5 3 10 4 15 5 2 2 2 1 8 4 4 10 5 14 2 18 3 8 2 5 7 3 14 5 4 11 1 5 3 19 5 18 2 19 1 4 19 2 4 3 5 13
7 5 4 15 5 16 2 4 1 3 3 20 5 4 6 3 20 2 3 5 7 1 18 5 5 2 4 15 3 7 2 20 1 7 4 4 7 3 11 2 15 5 12 1 4 5 5 2 15 4 13 3 11 1 9 5 8 2 1 19 5 11
8 4 2 3 4 13 5 2 3 2 4 2 15 1 16 5 10 4 3 1 2 13 5 2 15 1 12 3 12 5 5 4 17 4 2 5 4 11 5 4 1 10 2 1 10 3 4 3 3 13 1 16 5 9 3 3 16 1 3 5 7
4 5 5 12 1 8 2 18 4 9 3 18 4 4 20 2 11 1 12 5 15 4 2 4 5 7 3 13 1 19 4 1 14 4 8 5 4 2 18